1 -1 2 0
1 -1 -3 0
1 -2 -4 0
1 5 6 0
1 -7 8 0
1 -7 9 0
1 7 10 0
1 3 -11 0
1 3 12 0
1 13 14 0
1 -15 -16 0
1 15 13 0
1 15 -17 0
1 -18 -19 0
1 20 16 0
1 -21 -22 0
1 23 24 0
1 -14 25 0
1 24 14 0
1 22 -26 0
1 -22 27 0
1 -28 -29 0
1 28 30 0
1 31 -32 0
1 -33 32 0
1 -33 34 0
1 -35 -32 0
1 -35 36 0
1 37 8 0
1 37 38 0
1 32 39 0
1 -39 -38 0
1 40 36 0
1 40 -34 0
1 8 41 0
1 8 -42 0
1 43 -11 0
1 -43 35 0
1 41 -40 0
1 44 45 0
1 -44 -46 0
1 -34 47 0
1 34 -10 0
1 12 11 0
1 12 43 0
1 -12 -48 0
1 11 18 0
1 -49 50 0
1 49 43 0
1 49 -41 0
1 51 -43 0
1 -51 48 0
1 -52 17 0
1 -53 46 0
1 -17 -54 0
1 17 13 0
1 17 42 0
1 55 -54 0
1 -55 30 0
1 30 -9 0
1 30 54 0
1 30 56 0
1 -54 -4 0
1 50 5 0
1 50 30 0
1 -9 -51 0
1 9 49 0
1 -57 49 0
1 58 -22 0
1 58 -54 0
1 59 19 0
1 -60 15 0
1 60 -27 0
1 -60 -56 0
1 19 55 0
1 -61 -62 0
1 -61 63 0
1 64 22 0
1 -64 65 0
1 64 -66 0
1 67 -68 0
1 -46 44 0
1 -45 -44 0
1 45 -43 0
1 45 -69 0
1 70 71 0
1 70 55 0
1 -70 72 0
1 -73 74 0
1 -71 -70 0
1 -71 75 0
1 -76 -73 0
1 -77 78 0
1 78 -9 0
1 -79 -72 0
1 79 -75 0
1 80 79 0
1 -80 -77 0
1 72 -81 0
1 -72 -75 0
1 -72 -73 0
1 82 -79 0
1 82 77 0
1 47 82 0
1 47 -78 0
1 83 -9 0
1 83 19 0
1 84 -80 0
1 -62 -85 0
1 62 86 0
1 81 19 0
1 -86 -84 0
